start wtr

permanent_dir ./perm
scratch_dir ./data

prepare
  source wtr0.pdb
  new_top new_seq
  new_rst
  modify segment 1  quantum
  center
  orient
  solvate box 3.0
  update lists
  ignore
  write wtr_ref.rst
  write wtr_ref.pdb
end

task prepare
   
md
  system wtr_ref
end

basis
  * library "6-31G"
end

dft
  xc b3lyp
end

tddft
  nroots 4
  notriplet
end

qmmm
  bq_zone 3.0
end

propetry
  dipole
end

task qmmm tddft energy
