start wtr

permanent_dir ./perm
scratch_dir ./data

md
  system wtr_ref
end

basis
  * library "6-31G"
end

dft
  xc b3lyp
end

qmmm
  region  qm   solvent
  maxiter 10   1000
  ncycles 5
  density espfit
  xyz    foo
end

task qmmm dft optimize
